100 49618

 473 323
99 872
153 686
861 792
914 626
896 288
878 943
338 854
706 663
822 962
163 639
720 155
957 490
681 386
996 986
161 785
580 104
801 929
398 393
277 811
816 246
916 176
504 39
896 477
392 682
135 759
195 538
401 867
640 818
33 921
688 408
460 525
955 828
883 506
470 903
375 825
22 36
750 685
670 20
38 321
230 776
365 512
563 400
438 654
776 972
283 883
27 471
226 143
277 92
798 354
609 834
284 800
879 727
960 959
481 854
453 51
829 665
816 698
659 575
516 190
547 125
192 150
49 314
512 570
17 342
172 305
220 692
158 682
477 838
46 783
373 54
518 444
99 613
892 993
745 264
37 53
280 572
349 620
497 5
302 103
181 196
607 774
99 877
700 992
993 884
116 350
191 47
253 867
981 823
928 936
983 820
161 656
256 269
323 370
128 636
18 106
793 670
735 659
566 657
570 120
